
     Program PWSCF v.7.5 starts on 27Aug2026 at 11:18:43 

     This program is part of the open-source Quantum ESPRESSO suite
     for quantum simulation of materials; please cite
         "P. Giannozzi et al., J. Phys.:Condens. Matter 21 395502 (2009);
         "P. Giannozzi et al., J. Phys.:Condens. Matter 29 465901 (2017);
         "P. Giannozzi et al., J. Chem. Phys. 152 154105 (2020);
          URL http://www.quantum-espresso.org", 
     in publications or presentations arising from this work. More details at
     http://www.quantum-espresso.org/quote

     Parallel version (MPI & OpenMP), running on       8 processor cores
     Number of MPI processes:                 4
     Threads/MPI process:                     2

     MPI processes distributed on     1 nodes
     7784 MiB available memory on the printing compute node when the environment starts

     Waiting for input...
     Reading input from standard input

     Current dimensions of program PWSCF are:
     Max number of different atomic species (ntypx) = 10
     Max number of k-points (npk) =  40000
     Max angular momentum in pseudopotentials (lmaxx) =  4
     Message from routine setup:
     using ibrav=0 with symmetry is DISCOURAGED, use correct ibrav instead

     R & G space division:  proc/nbgrp/npool/nimage =       4
     Subspace diagonalization in iterative solution of the eigenvalue problem:
     a serial algorithm will be used


     Parallelization info
     --------------------
     sticks:   dense  smooth     PW     G-vecs:    dense   smooth      PW
     Min         238     238     70                 4798     4798     784
     Max         239     239     71                 4799     4799     787
     Sum         955     955    283                19195    19195    3143

     Using Slab Decomposition



     bravais-lattice index     =            0
     lattice parameter (alat)  =       7.2555  a.u.
     unit-cell volume          =     270.0773 (a.u.)^3
     number of atoms/cell      =            2
     number of atomic types    =            1
     number of electrons       =         8.00
     number of Kohn-Sham states=            8
     kinetic-energy cutoff     =      65.0000  Ry
     charge density cutoff     =     260.0000  Ry
     scf convergence threshold =      1.0E-10
     mixing beta               =       0.7000
     number of iterations used =            8  plain     mixing
     energy convergence thresh.=      1.0E-04
     force convergence thresh. =      1.0E-03
     press convergence thresh. =      5.0E-01
     Exchange-correlation= PBE
                           (   1   4   3   4   0   0   0)
     nstep                     =           50


     celldm(1)=   7.255506  celldm(2)=   0.000000  celldm(3)=   0.000000
     celldm(4)=   0.000000  celldm(5)=   0.000000  celldm(6)=   0.000000

     crystal axes: (cart. coord. in units of alat)
               a(1) = (   0.000000   0.707107   0.707107 )  
               a(2) = (   0.707107   0.000000   0.707107 )  
               a(3) = (   0.707107   0.707107   0.000000 )  

     reciprocal axes: (cart. coord. in units 2 pi/alat)
               b(1) = ( -0.707107  0.707107  0.707107 )  
               b(2) = (  0.707107 -0.707107  0.707107 )  
               b(3) = (  0.707107  0.707107 -0.707107 )  


     PseudoPot. # 1 for Si read from file:
     ../Si.upf
     MD5 check sum: 02fab3f35e82123ef5bf1cb05d5b1a5e
     Pseudo is Norm-conserving + core correction, Zval =  4.0
     Generated using ONCVPSP code by D. R. Hamann
     Using radial grid of 1510 points,  6 beta functions with: 
                l(1) =   0
                l(2) =   0
                l(3) =   1
                l(4) =   1
                l(5) =   2
                l(6) =   2

     atomic species   valence    mass     pseudopotential
     Si                4.00    28.08500     Si( 1.00)

     48 Sym. Ops., with inversion, found (24 have fractional translation)



   Cartesian axes

     site n.     atom                  positions (alat units)
         1        Si     tau(   1) = (   0.3535534   1.0606602   1.0606602  )
         2        Si     tau(   2) = (   0.0000000   0.0000000   0.0000000  )

     number of k points=   120  Gaussian smearing, width (Ry)=  0.0100

     Number of k-points >= 100: set verbosity='high' to print them.

     Dense  grid:    19195 G-vectors     FFT dimensions: (  40,  40,  40)

     Estimated max dynamical RAM per process >      15.14 MB

     Estimated total dynamical RAM >      60.55 MB

     Initial potential from superposition of free atoms

     starting charge       7.9988, renormalised to       8.0000
     Starting wfcs are    8 randomized atomic wfcs

     total cpu time spent up to now is        0.4 secs

     per-process dynamical memory:    25.2 Mb

     Self-consistent Calculation

     iteration #  1     ecut=    65.00 Ry     beta= 0.70
     Davidson diagonalization with overlap
     ethr =  1.00E-02,  avg # of iterations =  4.8

     Threshold (ethr) on eigenvalues was too large:
     Diagonalizing with lowered threshold

     Davidson diagonalization with overlap
     ethr =  6.54E-04,  avg # of iterations =  1.8

     total cpu time spent up to now is        1.8 secs

     total energy              =     -16.92246885 Ry
     estimated scf accuracy    <       0.05589063 Ry

     iteration #  2     ecut=    65.00 Ry     beta= 0.70
     Davidson diagonalization with overlap
     ethr =  6.99E-04,  avg # of iterations =  1.0

     total cpu time spent up to now is        2.3 secs

     total energy              =     -16.92475943 Ry
     estimated scf accuracy    <       0.00217492 Ry

     iteration #  3     ecut=    65.00 Ry     beta= 0.70
     Davidson diagonalization with overlap
     ethr =  2.72E-05,  avg # of iterations =  4.6

     total cpu time spent up to now is        2.9 secs

     total energy              =     -16.92487416 Ry
     estimated scf accuracy    <       0.00003891 Ry

     iteration #  4     ecut=    65.00 Ry     beta= 0.70
     Davidson diagonalization with overlap
     ethr =  4.86E-07,  avg # of iterations =  3.7

     total cpu time spent up to now is        3.7 secs

     total energy              =     -16.92488339 Ry
     estimated scf accuracy    <       0.00000017 Ry

     iteration #  5     ecut=    65.00 Ry     beta= 0.70
     Davidson diagonalization with overlap
     ethr =  2.13E-09,  avg # of iterations =  3.7

     total cpu time spent up to now is        4.6 secs

     total energy              =     -16.92488372 Ry
     estimated scf accuracy    <          8.9E-09 Ry

     iteration #  6     ecut=    65.00 Ry     beta= 0.70
     Davidson diagonalization with overlap
     ethr =  1.12E-10,  avg # of iterations =  2.0

     total cpu time spent up to now is        5.2 secs

     total energy              =     -16.92488372 Ry
     estimated scf accuracy    <          1.9E-10 Ry

     iteration #  7     ecut=    65.00 Ry     beta= 0.70
     Davidson diagonalization with overlap
     ethr =  2.39E-12,  avg # of iterations =  3.0

     total cpu time spent up to now is        5.8 secs

     End of self-consistent calculation

     Number of k-points >= 100: set verbosity='high' to print the bands.

     the Fermi energy is     6.5148 ev

!    total energy              =     -16.92488372 Ry
     estimated scf accuracy    <          3.8E-11 Ry
     smearing contrib. (-TS)   =      -0.00000022 Ry
     internal energy E=F+TS    =     -16.92488350 Ry

     The total energy is F=E-TS. E is the sum of the following terms:
     one-electron contribution =       4.96416573 Ry
     hartree contribution      =       1.09478243 Ry
     xc contribution           =      -6.18426916 Ry
     ewald contribution        =     -16.79956250 Ry

     convergence has been achieved in   7 iterations

     Forces acting on atoms (cartesian axes, Ry/au):

     atom    1 type  1   force =     0.00000000   -0.00000000    0.00000000
     atom    2 type  1   force =    -0.00000000    0.00000000   -0.00000000

     Total force =     0.000000     Total SCF correction =     0.000000


     Computing stress (Cartesian axis) and pressure

          total   stress  (Ry/bohr**3)                   (kbar)     P=       19.93
   0.00013547  -0.00000000  -0.00000000           19.93       -0.00       -0.00
  -0.00000000   0.00013547  -0.00000000           -0.00       19.93       -0.00
  -0.00000000  -0.00000000   0.00013547           -0.00       -0.00       19.93


     BFGS Geometry Optimization
     Energy error            =      3.7E-04 Ry
     Gradient error          =      1.4E-31 Ry/Bohr
     Cell gradient error     =      2.0E+01 kbar

     number of scf cycles    =   1
     number of bfgs steps    =   0

     enthalpy           new  =     -16.9248837197 Ry

     new trust radius        =       0.0111315149 bohr
     new conv_thr            =            1.0E-10 Ry

     new unit-cell volume =    272.83065 a.u.^3 (    40.42933 Ang^3 )
     density =      2.30705 g/cm^3

CELL_PARAMETERS (angstrom)
  -0.000000000   2.724094626   2.724094626
   2.724094626  -0.000000000   2.724094626
   2.724094626   2.724094626  -0.000000000

ATOMIC_POSITIONS (angstrom)
Si               1.3620473129        4.0861419386        4.0861419386
Si              -0.0000000000        0.0000000000       -0.0000000000



     Writing config-only to output data dir ./pwscf.save/ :
     XML data file
     NEW-OLD atomic charge density approx. for the potential
     New effective cutoffs (rho, wfc):  257.73   64.56

     total cpu time spent up to now is        6.2 secs

     per-process dynamical memory:    26.5 Mb

     Self-consistent Calculation

     iteration #  1     ecut=    65.00 Ry     beta= 0.70
     Davidson diagonalization with overlap
     ethr =  1.00E-06,  avg # of iterations =  3.3

     Threshold (ethr) on eigenvalues was too large:
     Diagonalizing with lowered threshold

     Davidson diagonalization with overlap
     ethr =  3.93E-08,  avg # of iterations =  2.5

     total cpu time spent up to now is        7.5 secs

     total energy              =     -16.92516567 Ry
     estimated scf accuracy    <       0.00000295 Ry

     iteration #  2     ecut=    65.00 Ry     beta= 0.70
     Davidson diagonalization with overlap
     ethr =  3.69E-08,  avg # of iterations =  1.1

     total cpu time spent up to now is        8.0 secs

     total energy              =     -16.92516597 Ry
     estimated scf accuracy    <       0.00000006 Ry

     iteration #  3     ecut=    65.00 Ry     beta= 0.70
     Davidson diagonalization with overlap
     ethr =  7.86E-10,  avg # of iterations =  2.4

     total cpu time spent up to now is        8.7 secs

     total energy              =     -16.92516599 Ry
     estimated scf accuracy    <          3.2E-09 Ry

     iteration #  4     ecut=    65.00 Ry     beta= 0.70
     Davidson diagonalization with overlap
     ethr =  3.99E-11,  avg # of iterations =  2.8

     total cpu time spent up to now is        9.4 secs

     End of self-consistent calculation

     Number of k-points >= 100: set verbosity='high' to print the bands.

     the Fermi energy is     6.4180 ev

!    total energy              =     -16.92516600 Ry
     estimated scf accuracy    <          6.8E-11 Ry
     smearing contrib. (-TS)   =      -0.00000016 Ry
     internal energy E=F+TS    =     -16.92516584 Ry

     The total energy is F=E-TS. E is the sum of the following terms:
     one-electron contribution =       4.88701456 Ry
     hartree contribution      =       1.10365587 Ry
     xc contribution           =      -6.17297726 Ry
     ewald contribution        =     -16.74285901 Ry

     convergence has been achieved in   4 iterations

     Forces acting on atoms (cartesian axes, Ry/au):

     atom    1 type  1   force =    -0.00000000   -0.00000000    0.00000000
     atom    2 type  1   force =    -0.00000000    0.00000000    0.00000000

     Total force =     0.000000     Total SCF correction =     0.000000


     Computing stress (Cartesian axis) and pressure

          total   stress  (Ry/bohr**3)                   (kbar)     P=       10.32
   0.00007014  -0.00000000   0.00000000           10.32       -0.00        0.00
  -0.00000000   0.00007014  -0.00000000           -0.00       10.32       -0.00
   0.00000000  -0.00000000   0.00007014            0.00       -0.00       10.32

     Energy error            =      2.8E-04 Ry
     Gradient error          =      2.8E-31 Ry/Bohr
     Cell gradient error     =      1.0E+01 kbar

     number of scf cycles    =   2
     number of bfgs steps    =   1

     enthalpy           old  =     -16.9248837197 Ry
     enthalpy           new  =     -16.9251659951 Ry

     CASE: enthalpy          _new < enthalpy          _old

     new trust radius        =       0.0121410336 bohr
     new conv_thr            =            1.0E-12 Ry

     new unit-cell volume =    275.84983 a.u.^3 (    40.87673 Ang^3 )
     density =      2.28180 g/cm^3

CELL_PARAMETERS (angstrom)
  -0.000000000   2.734106175   2.734106175
   2.734106175  -0.000000000   2.734106175
   2.734106175   2.734106175  -0.000000000

ATOMIC_POSITIONS (angstrom)
Si               1.3670530873        4.1011592620        4.1011592620
Si              -0.0000000000        0.0000000000        0.0000000000



     Writing config-only to output data dir ./pwscf.save/ :
     XML data file
     NEW-OLD atomic charge density approx. for the potential
     New effective cutoffs (rho, wfc):  255.85   64.09

     total cpu time spent up to now is        9.7 secs

     per-process dynamical memory:    26.6 Mb

     Self-consistent Calculation

     iteration #  1     ecut=    65.00 Ry     beta= 0.70
     Davidson diagonalization with overlap
     ethr =  1.00E-06,  avg # of iterations =  3.5

     Threshold (ethr) on eigenvalues was too large:
     Diagonalizing with lowered threshold

     Davidson diagonalization with overlap
     ethr =  4.72E-08,  avg # of iterations =  2.5

     total cpu time spent up to now is       11.1 secs

     total energy              =     -16.92527418 Ry
     estimated scf accuracy    <       0.00000346 Ry

     iteration #  2     ecut=    65.00 Ry     beta= 0.70
     Davidson diagonalization with overlap
     ethr =  4.32E-08,  avg # of iterations =  1.1

     total cpu time spent up to now is       11.7 secs

     total energy              =     -16.92527453 Ry
     estimated scf accuracy    <       0.00000007 Ry

     iteration #  3     ecut=    65.00 Ry     beta= 0.70
     Davidson diagonalization with overlap
     ethr =  9.10E-10,  avg # of iterations =  2.4

     total cpu time spent up to now is       12.4 secs

     total energy              =     -16.92527456 Ry
     estimated scf accuracy    <          3.6E-09 Ry

     iteration #  4     ecut=    65.00 Ry     beta= 0.70
     Davidson diagonalization with overlap
     ethr =  4.48E-11,  avg # of iterations =  2.9

     total cpu time spent up to now is       13.1 secs

     total energy              =     -16.92527456 Ry
     estimated scf accuracy    <          6.8E-11 Ry

     iteration #  5     ecut=    65.00 Ry     beta= 0.70
     Davidson diagonalization with overlap
     ethr =  8.44E-13,  avg # of iterations =  3.5

     total cpu time spent up to now is       13.7 secs

     total energy              =     -16.92527456 Ry
     estimated scf accuracy    <          6.0E-12 Ry

     iteration #  6     ecut=    65.00 Ry     beta= 0.70
     Davidson diagonalization with overlap
     ethr =  1.00E-13,  avg # of iterations =  2.0

     total cpu time spent up to now is       14.3 secs

     End of self-consistent calculation

     Number of k-points >= 100: set verbosity='high' to print the bands.

     the Fermi energy is     6.3138 ev

!    total energy              =     -16.92527456 Ry
     estimated scf accuracy    <          4.0E-13 Ry
     smearing contrib. (-TS)   =      -0.00000012 Ry
     internal energy E=F+TS    =     -16.92527445 Ry

     The total energy is F=E-TS. E is the sum of the following terms:
     one-electron contribution =       4.80375761 Ry
     hartree contribution      =       1.11333306 Ry
     xc contribution           =      -6.16081388 Ry
     ewald contribution        =     -16.68155124 Ry

     convergence has been achieved in   6 iterations

     Forces acting on atoms (cartesian axes, Ry/au):

     atom    1 type  1   force =     0.00000000   -0.00000000   -0.00000000
     atom    2 type  1   force =    -0.00000000    0.00000000    0.00000000

     Total force =     0.000000     Total SCF correction =     0.000000


     Computing stress (Cartesian axis) and pressure

          total   stress  (Ry/bohr**3)                   (kbar)     P=        0.35
   0.00000241   0.00000000   0.00000000            0.35        0.00        0.00
   0.00000000   0.00000241   0.00000000            0.00        0.35        0.00
   0.00000000   0.00000000   0.00000241            0.00        0.00        0.35

     Energy error            =      1.1E-04 Ry
     Gradient error          =      4.6E-32 Ry/Bohr
     Cell gradient error     =      3.5E-01 kbar

     number of scf cycles    =   3
     number of bfgs steps    =   2

     enthalpy           old  =     -16.9251659951 Ry
     enthalpy           new  =     -16.9252745641 Ry

     CASE: enthalpy          _new < enthalpy          _old

     new trust radius        =       0.0004360183 bohr
     new conv_thr            =            1.0E-12 Ry

     new unit-cell volume =    275.95847 a.u.^3 (    40.89283 Ang^3 )
     density =      2.28090 g/cm^3

CELL_PARAMETERS (angstrom)
  -0.000000000   2.734465058   2.734465058
   2.734465058  -0.000000000   2.734465058
   2.734465058   2.734465058  -0.000000000

ATOMIC_POSITIONS (angstrom)
Si               1.3672325292        4.1016975875        4.1016975875
Si              -0.0000000000        0.0000000000        0.0000000000



     Writing config-only to output data dir ./pwscf.save/ :
     XML data file
     NEW-OLD atomic charge density approx. for the potential
     New effective cutoffs (rho, wfc):  255.78   64.07

     total cpu time spent up to now is       14.7 secs

     per-process dynamical memory:    26.6 Mb

     Self-consistent Calculation

     iteration #  1     ecut=    65.00 Ry     beta= 0.70
     Davidson diagonalization with overlap
     ethr =  1.00E-06,  avg # of iterations =  1.0

     Threshold (ethr) on eigenvalues was too large:
     Diagonalizing with lowered threshold

     Davidson diagonalization with overlap
     ethr =  1.08E-10,  avg # of iterations =  4.0

     total cpu time spent up to now is       15.9 secs

     total energy              =     -16.92527470 Ry
     estimated scf accuracy    <          4.4E-09 Ry

     iteration #  2     ecut=    65.00 Ry     beta= 0.70
     Davidson diagonalization with overlap
     ethr =  5.49E-11,  avg # of iterations =  1.1

     total cpu time spent up to now is       16.5 secs

     total energy              =     -16.92527470 Ry
     estimated scf accuracy    <          9.5E-11 Ry

     iteration #  3     ecut=    65.00 Ry     beta= 0.70
     Davidson diagonalization with overlap
     ethr =  1.19E-12,  avg # of iterations =  2.1

     total cpu time spent up to now is       17.1 secs

     total energy              =     -16.92527470 Ry
     estimated scf accuracy    <          4.7E-12 Ry

     iteration #  4     ecut=    65.00 Ry     beta= 0.70
     Davidson diagonalization with overlap
     ethr =  1.00E-13,  avg # of iterations =  2.1

     total cpu time spent up to now is       17.7 secs

     End of self-consistent calculation

     Number of k-points >= 100: set verbosity='high' to print the bands.

     the Fermi energy is     6.3101 ev

!    total energy              =     -16.92527470 Ry
     estimated scf accuracy    <          7.4E-14 Ry
     smearing contrib. (-TS)   =      -0.00000011 Ry
     internal energy E=F+TS    =     -16.92527458 Ry

     The total energy is F=E-TS. E is the sum of the following terms:
     one-electron contribution =       4.80078749 Ry
     hartree contribution      =       1.11368014 Ry
     xc contribution           =      -6.16038034 Ry
     ewald contribution        =     -16.67936187 Ry

     convergence has been achieved in   4 iterations

     Forces acting on atoms (cartesian axes, Ry/au):

     atom    1 type  1   force =    -0.00000000    0.00000000    0.00000000
     atom    2 type  1   force =     0.00000000   -0.00000000   -0.00000000

     Total force =     0.000000     Total SCF correction =     0.000000


     Computing stress (Cartesian axis) and pressure

          total   stress  (Ry/bohr**3)                   (kbar)     P=        0.01
   0.00000004   0.00000000   0.00000000            0.01        0.00        0.00
   0.00000000   0.00000004  -0.00000000            0.00        0.01       -0.00
   0.00000000  -0.00000000   0.00000004            0.00       -0.00        0.01

     Energy error            =      1.3E-07 Ry
     Gradient error          =      2.8E-31 Ry/Bohr
     Cell gradient error     =      6.6E-03 kbar

     bfgs converged in   4 scf cycles and   3 bfgs steps
     (criteria: energy <  1.0E-04 Ry, force <  1.0E-03 Ry/Bohr, cell <  5.0E-01 kbar)

     End of BFGS Geometry Optimization

     Final enthalpy           =     -16.9252746975 Ry

     File ./pwscf.bfgs deleted, as requested
Begin final coordinates
     new unit-cell volume =    275.95847 a.u.^3 (    40.89283 Ang^3 )
     density =      2.28090 g/cm^3

CELL_PARAMETERS (angstrom)
  -0.000000000   2.734465058   2.734465058
   2.734465058  -0.000000000   2.734465058
   2.734465058   2.734465058  -0.000000000

ATOMIC_POSITIONS (angstrom)
Si               1.3672325292        4.1016975875        4.1016975875
Si              -0.0000000000        0.0000000000        0.0000000000
End final coordinates



     Writing config-only to output data dir ./pwscf.save/ :
     XML data file

     Final scf calculation at the relaxed structure.
     The G-vectors are recalculated for the final unit cell
     Results may differ from those at the preceding step.

     Parallelization info
     --------------------
     sticks:   dense  smooth     PW     G-vecs:    dense   smooth      PW
     Min         238     238     73                 4892     4892     821
     Max         239     239     74                 4896     4896     823
     Sum         955     955    295                19579    19579    3287

     Using Slab Decomposition



     bravais-lattice index     =            0
     lattice parameter (alat)  =       7.2555  a.u.
     unit-cell volume          =     275.9585 (a.u.)^3
     number of atoms/cell      =            2
     number of atomic types    =            1
     number of electrons       =         8.00
     number of Kohn-Sham states=            8
     kinetic-energy cutoff     =      65.0000  Ry
     charge density cutoff     =     260.0000  Ry
     scf convergence threshold =      1.0E-12
     mixing beta               =       0.7000
     number of iterations used =            8  plain     mixing
     press convergence thresh. =      5.0E-01
     Exchange-correlation= PBE
                           (   1   4   3   4   0   0   0)

     celldm(1)=   7.255506  celldm(2)=   0.000000  celldm(3)=   0.000000
     celldm(4)=   0.000000  celldm(5)=   0.000000  celldm(6)=   0.000000

     crystal axes: (cart. coord. in units of alat)
               a(1) = (  -0.000000   0.712203   0.712203 )  
               a(2) = (   0.712203  -0.000000   0.712203 )  
               a(3) = (   0.712203   0.712203  -0.000000 )  

     reciprocal axes: (cart. coord. in units 2 pi/alat)
               b(1) = ( -0.702047  0.702047  0.702047 )  
               b(2) = (  0.702047 -0.702047  0.702047 )  
               b(3) = (  0.702047  0.702047 -0.702047 )  


     PseudoPot. # 1 for Si read from file:
     ../Si.upf
     MD5 check sum: 02fab3f35e82123ef5bf1cb05d5b1a5e
     Pseudo is Norm-conserving + core correction, Zval =  4.0
     Generated using ONCVPSP code by D. R. Hamann
     Using radial grid of 1510 points,  6 beta functions with: 
                l(1) =   0
                l(2) =   0
                l(3) =   1
                l(4) =   1
                l(5) =   2
                l(6) =   2

     atomic species   valence    mass     pseudopotential
     Si                4.00    28.08500     Si( 1.00)

     48 Sym. Ops., with inversion, found (24 have fractional translation)



   Cartesian axes

     site n.     atom                  positions (alat units)
         1        Si     tau(   1) = (   0.3561013   1.0683039   1.0683039  )
         2        Si     tau(   2) = (  -0.0000000   0.0000000   0.0000000  )

     number of k points=   120  Gaussian smearing, width (Ry)=  0.0100

     Number of k-points >= 100: set verbosity='high' to print them.

     Dense  grid:    19579 G-vectors     FFT dimensions: (  40,  40,  40)

     Estimated max dynamical RAM per process >      15.42 MB

     Estimated total dynamical RAM >      61.68 MB

     Initial potential from superposition of free atoms

     starting charge       7.9988, renormalised to       8.0000
     Starting wfcs are    8 randomized atomic wfcs

     total cpu time spent up to now is       18.3 secs

     per-process dynamical memory:    25.6 Mb

     Self-consistent Calculation

     iteration #  1     ecut=    65.00 Ry     beta= 0.70
     Davidson diagonalization with overlap
     c_bands:  1 eigenvalues not converged
     c_bands:  1 eigenvalues not converged
     c_bands:  1 eigenvalues not converged
     c_bands:  2 eigenvalues not converged
     c_bands:  1 eigenvalues not converged
     c_bands:  1 eigenvalues not converged
     c_bands:  1 eigenvalues not converged
     c_bands:  1 eigenvalues not converged
     c_bands:  1 eigenvalues not converged
     c_bands:  1 eigenvalues not converged
     c_bands:  1 eigenvalues not converged
     c_bands:  1 eigenvalues not converged
     ethr =  1.00E-06,  avg # of iterations = 15.7

     total cpu time spent up to now is       20.6 secs

     total energy              =     -16.92307736 Ry
     estimated scf accuracy    <       0.05515551 Ry

     iteration #  2     ecut=    65.00 Ry     beta= 0.70
     Davidson diagonalization with overlap
     ethr =  6.89E-04,  avg # of iterations =  1.0

     total cpu time spent up to now is       21.1 secs

     total energy              =     -16.92516112 Ry
     estimated scf accuracy    <       0.00211318 Ry

     iteration #  3     ecut=    65.00 Ry     beta= 0.70
     Davidson diagonalization with overlap
     ethr =  2.64E-05,  avg # of iterations =  1.3

     total cpu time spent up to now is       21.7 secs

     total energy              =     -16.92526408 Ry
     estimated scf accuracy    <       0.00003200 Ry

     iteration #  4     ecut=    65.00 Ry     beta= 0.70
     Davidson diagonalization with overlap
     ethr =  4.00E-07,  avg # of iterations =  2.9

     total cpu time spent up to now is       22.4 secs

     total energy              =     -16.92527441 Ry
     estimated scf accuracy    <       0.00000088 Ry

     iteration #  5     ecut=    65.00 Ry     beta= 0.70
     Davidson diagonalization with overlap
     ethr =  1.10E-08,  avg # of iterations =  2.7

     total cpu time spent up to now is       23.1 secs

     total energy              =     -16.92527483 Ry
     estimated scf accuracy    <       0.00000005 Ry

     iteration #  6     ecut=    65.00 Ry     beta= 0.70
     Davidson diagonalization with overlap
     ethr =  5.94E-10,  avg # of iterations =  2.7

     total cpu time spent up to now is       23.7 secs

     total energy              =     -16.92527485 Ry
     estimated scf accuracy    <          4.0E-10 Ry

     iteration #  7     ecut=    65.00 Ry     beta= 0.70
     Davidson diagonalization with overlap
     ethr =  4.99E-12,  avg # of iterations =  3.8

     total cpu time spent up to now is       24.4 secs

     total energy              =     -16.92527485 Ry
     estimated scf accuracy    <          1.3E-11 Ry

     iteration #  8     ecut=    65.00 Ry     beta= 0.70
     Davidson diagonalization with overlap
     ethr =  1.59E-13,  avg # of iterations =  2.3

     total cpu time spent up to now is       25.0 secs

     End of self-consistent calculation

     Number of k-points >= 100: set verbosity='high' to print the bands.

     the Fermi energy is     6.3101 ev

!    total energy              =     -16.92527485 Ry
     estimated scf accuracy    <          6.3E-14 Ry
     smearing contrib. (-TS)   =      -0.00000011 Ry
     internal energy E=F+TS    =     -16.92527474 Ry

     The total energy is F=E-TS. E is the sum of the following terms:
     one-electron contribution =       4.80078721 Ry
     hartree contribution      =       1.11368025 Ry
     xc contribution           =      -6.16038032 Ry
     ewald contribution        =     -16.67936187 Ry

     convergence has been achieved in   8 iterations

     Forces acting on atoms (cartesian axes, Ry/au):

     atom    1 type  1   force =     0.00000000    0.00000000   -0.00000000
     atom    2 type  1   force =    -0.00000000    0.00000000    0.00000000

     Total force =     0.000000     Total SCF correction =     0.000000


     Computing stress (Cartesian axis) and pressure

          total   stress  (Ry/bohr**3)                   (kbar)     P=        0.01
   0.00000004   0.00000000   0.00000000            0.01        0.00        0.00
   0.00000000   0.00000004   0.00000000            0.00        0.01        0.00
   0.00000000   0.00000000   0.00000004            0.00        0.00        0.01


     Writing all to output data dir ./pwscf.save/ :
     XML data file, charge density, pseudopotentials, collected wavefunctions

     init_run     :      0.99s CPU      0.62s WALL (       2 calls)
     electrons    :     41.93s CPU     23.15s WALL (       5 calls)
     update_pot   :      0.02s CPU      0.01s WALL (       3 calls)
     forces       :      0.56s CPU      0.29s WALL (       5 calls)
     stress       :      2.46s CPU      1.24s WALL (       5 calls)

     Called by init_run:
     wfcinit      :      0.77s CPU      0.42s WALL (       2 calls)
     potinit      :      0.02s CPU      0.01s WALL (       2 calls)
     hinit0       :      0.17s CPU      0.16s WALL (       2 calls)

     Called by electrons:
     c_bands      :     36.38s CPU     19.93s WALL (      33 calls)
     sum_band     :      5.44s CPU      3.14s WALL (      33 calls)
     v_of_rho     :      0.13s CPU      0.08s WALL (      34 calls)
     mix_rho      :      0.01s CPU      0.01s WALL (      33 calls)

     Called by c_bands:
     init_us_2    :      1.63s CPU      0.85s WALL (    9360 calls)
     cegterg      :     33.18s CPU     18.32s WALL (    3960 calls)

     Called by *egterg:
     cdiaghg      :      1.29s CPU      0.64s WALL (   14806 calls)
     h_psi        :     30.24s CPU     16.80s WALL (   15886 calls)
     g_psi        :      0.21s CPU      0.11s WALL (   11686 calls)

     Called by h_psi:
     h_psi:calbec :      1.08s CPU      0.57s WALL (   15886 calls)
     vloc_psi     :     28.19s CPU     15.68s WALL (   15886 calls)
                                        0.00s GPU  (   15886 calls)
     add_vuspsi   :      0.73s CPU      0.39s WALL (   15886 calls)

     General routines
     calbec       :      1.85s CPU      0.99s WALL (   26086 calls)
     fft          :      0.19s CPU      0.17s WALL (     467 calls)
     ffts         :      0.00s CPU      0.00s WALL (      33 calls)
     fftw         :     29.19s CPU     16.24s WALL (  213452 calls)

     Parallel routines

     PWSCF        :     46.14s CPU     25.43s WALL


   This run was terminated on:  11:19: 8  27Aug2026            

=------------------------------------------------------------------------------=
   JOB DONE.
=------------------------------------------------------------------------------=
