
     Program PWSCF v.7.5 starts on 27Aug2026 at 15: 5:44 

     This program is part of the open-source Quantum ESPRESSO suite
     for quantum simulation of materials; please cite
         "P. Giannozzi et al., J. Phys.:Condens. Matter 21 395502 (2009);
         "P. Giannozzi et al., J. Phys.:Condens. Matter 29 465901 (2017);
         "P. Giannozzi et al., J. Chem. Phys. 152 154105 (2020);
          URL http://www.quantum-espresso.org", 
     in publications or presentations arising from this work. More details at
     http://www.quantum-espresso.org/quote

     Parallel version (MPI & OpenMP), running on       4 processor cores
     Number of MPI processes:                 4
     Threads/MPI process:                     1

     MPI processes distributed on     1 nodes
     3117 MiB available memory on the printing compute node when the environment starts

     Reading input from espresso.pwi
Warning: card &CELL ignored
Warning: card &FCP ignored
Warning: card &RISM ignored

     Current dimensions of program PWSCF are:
     Max number of different atomic species (ntypx) = 10
     Max number of k-points (npk) =  40000
     Max angular momentum in pseudopotentials (lmaxx) =  4
     Message from routine setup:
     using ibrav=0 with symmetry is DISCOURAGED, use correct ibrav instead

     R & G space division:  proc/nbgrp/npool/nimage =       4
     Subspace diagonalization in iterative solution of the eigenvalue problem:
     a serial algorithm will be used


     Parallelization info
     --------------------
     sticks:   dense  smooth     PW     G-vecs:    dense   smooth      PW
     Min         148     148     44                18002    18002    2885
     Max         149     149     49                18019    18019    2886
     Sum         595     595    187                72043    72043   11541

     Using Slab Decomposition



     bravais-lattice index     =            0
     lattice parameter (alat)  =       4.6607  a.u.
     unit-cell volume          =     533.2351 (a.u.)^3
     number of atoms/cell      =            2
     number of atomic types    =            1
     number of electrons       =         8.00
     number of Kohn-Sham states=            8
     kinetic-energy cutoff     =     100.0000  Ry
     charge density cutoff     =     400.0000  Ry
     scf convergence threshold =      1.0E-10
     mixing beta               =       0.7000
     number of iterations used =            8  plain     mixing
     Exchange-correlation= PBE
                           (   1   4   3   4   0   0   0)

     celldm(1)=   4.660677  celldm(2)=   0.000000  celldm(3)=   0.000000
     celldm(4)=   0.000000  celldm(5)=   0.000000  celldm(6)=   0.000000

     crystal axes: (cart. coord. in units of alat)
               a(1) = (   1.000000   0.000000   0.000000 )  
               a(2) = (  -0.500000   0.866025   0.000000 )  
               a(3) = (   0.000000   0.000000   6.081926 )  

     reciprocal axes: (cart. coord. in units 2 pi/alat)
               b(1) = (  1.000000  0.577350 -0.000000 )  
               b(2) = (  0.000000  1.154701  0.000000 )  
               b(3) = (  0.000000 -0.000000  0.164422 )  


     PseudoPot. # 1 for C  read from file:
     ../C.upf
     MD5 check sum: 34a24e64c0a39f27c6c36b90a16ac686
     Pseudo is Norm-conserving + core correction, Zval =  4.0
     Generated using ONCVPSP code by D. R. Hamann
     Using radial grid of 1248 points,  4 beta functions with: 
                l(1) =   0
                l(2) =   0
                l(3) =   1
                l(4) =   1

     atomic species   valence    mass     pseudopotential
     C                 4.00    12.01100     C ( 1.00)

     24 Sym. Ops., with inversion, found (12 have fractional translation)



   Cartesian axes

     site n.     atom                  positions (alat units)
         1        C      tau(   1) = (   0.0000000   0.0000000   3.0409630  )
         2        C      tau(   2) = (   0.0000000   0.5773503   3.0409630  )

     number of k points=   169  Gaussian smearing, width (Ry)=  0.0100

     Number of k-points >= 100: set verbosity='high' to print them.

     Dense  grid:    72043 G-vectors     FFT dimensions: (  30,  30, 192)

     Estimated max dynamical RAM per process >       8.45 MB

     Estimated total dynamical RAM >      33.81 MB
 ----2D----2D----2D----2D----2D----2D----2D----2D----2D----2D----2D----2D
  The code is running with the 2D cutoff
  Please refer to:
  Sohier, T., Calandra, M., & Mauri, F. (2017), 
  Density functional perturbation theory for gated two-dimensional heterostructures:
  Theoretical developments and application to flexural phonons in graphene.
  Physical Review B, 96(7), 75448. https://doi.org/10.1103/PhysRevB.96.075448
 ----2D----2D----2D----2D----2D----2D----2D----2D----2D----2D----2D----2D

     Initial potential from superposition of free atoms

     starting charge       7.9999, renormalised to       8.0000

     negative rho (up, down):  1.322E-06 0.000E+00
     Starting wfcs are    8 randomized atomic wfcs

     total cpu time spent up to now is        0.9 secs

     per-process dynamical memory:    22.1 Mb

     Self-consistent Calculation

     iteration #  1     ecut=   100.00 Ry     beta= 0.70
     Davidson diagonalization with overlap
     ethr =  1.00E-02,  avg # of iterations =  5.9

     total cpu time spent up to now is        3.6 secs

     total energy              =     -24.06982298 Ry
     estimated scf accuracy    <       0.18963837 Ry

     iteration #  2     ecut=   100.00 Ry     beta= 0.70
     Davidson diagonalization with overlap
     ethr =  2.37E-03,  avg # of iterations =  4.1

     total cpu time spent up to now is        6.0 secs

     total energy              =     -24.09532109 Ry
     estimated scf accuracy    <       0.00192104 Ry

     iteration #  3     ecut=   100.00 Ry     beta= 0.70
     Davidson diagonalization with overlap
     c_bands:  1 eigenvalues not converged
     ethr =  2.40E-05,  avg # of iterations = 10.6

     total cpu time spent up to now is        9.5 secs

     total energy              =     -24.09582752 Ry
     estimated scf accuracy    <       0.00015015 Ry

     iteration #  4     ecut=   100.00 Ry     beta= 0.70
     Davidson diagonalization with overlap
     c_bands:  1 eigenvalues not converged
     c_bands:  1 eigenvalues not converged
     ethr =  1.88E-06,  avg # of iterations =  5.5

     total cpu time spent up to now is       11.5 secs

     total energy              =     -24.09584486 Ry
     estimated scf accuracy    <       0.00000355 Ry

     iteration #  5     ecut=   100.00 Ry     beta= 0.70
     Davidson diagonalization with overlap
     ethr =  4.44E-08,  avg # of iterations =  3.0

     total cpu time spent up to now is       13.3 secs

     total energy              =     -24.09584656 Ry
     estimated scf accuracy    <       0.00000007 Ry

     iteration #  6     ecut=   100.00 Ry     beta= 0.70
     Davidson diagonalization with overlap
     ethr =  9.17E-10,  avg # of iterations =  3.4

     total cpu time spent up to now is       15.1 secs

     total energy              =     -24.09584662 Ry
     estimated scf accuracy    <          1.8E-09 Ry

     iteration #  7     ecut=   100.00 Ry     beta= 0.70
     Davidson diagonalization with overlap
     ethr =  2.25E-11,  avg # of iterations =  3.0

     total cpu time spent up to now is       16.8 secs

     End of self-consistent calculation

     Number of k-points >= 100: set verbosity='high' to print the bands.

     the Fermi energy is    -4.2406 ev

!    total energy              =     -24.09584662 Ry
     estimated scf accuracy    <          1.0E-11 Ry
     smearing contrib. (-TS)   =      -0.00001282 Ry
     internal energy E=F+TS    =     -24.09583380 Ry

     The total energy is F=E-TS. E is the sum of the following terms:
     one-electron contribution =    -256.46882537 Ry
     hartree contribution      =     128.98699871 Ry
     xc contribution           =      -8.57813505 Ry
     ewald contribution        =     111.96412791 Ry

     convergence has been achieved in   7 iterations

     Forces acting on atoms (cartesian axes, Ry/au):

     atom    1 type  1   force =     0.00000000    0.00000000    0.00000000
     atom    2 type  1   force =     0.00000000   -0.00000000    0.00000000

     Total force =     0.000000     Total SCF correction =     0.000000


     Computing stress (Cartesian axis) and pressure

          total   stress  (Ry/bohr**3)                   (kbar)     P=        0.06
   0.00000064  -0.00000000  -0.00000000            0.09       -0.00       -0.00
  -0.00000000   0.00000064  -0.00000000           -0.00        0.09       -0.00
  -0.00000000   0.00000000  -0.00000002           -0.00        0.00       -0.00


     Writing all to output data dir ./tmp/graphene.save/ :
     XML data file, charge density, pseudopotentials, collected wavefunctions

     init_run     :      0.80s CPU      0.85s WALL (       1 calls)
     electrons    :     14.62s CPU     15.98s WALL (       1 calls)
     forces       :      0.12s CPU      0.12s WALL (       1 calls)
     stress       :      0.51s CPU      0.54s WALL (       1 calls)

     Called by init_run:
     wfcinit      :      0.54s CPU      0.58s WALL (       1 calls)
     potinit      :      0.01s CPU      0.01s WALL (       1 calls)
     hinit0       :      0.17s CPU      0.17s WALL (       1 calls)

     Called by electrons:
     c_bands      :     12.70s CPU     13.88s WALL (       7 calls)
     sum_band     :      1.86s CPU      2.01s WALL (       7 calls)
     v_of_rho     :      0.06s CPU      0.07s WALL (       8 calls)
     mix_rho      :      0.01s CPU      0.02s WALL (       7 calls)

     Called by c_bands:
     init_us_2    :      0.37s CPU      0.41s WALL (    2873 calls)
     cegterg      :     12.23s CPU     13.34s WALL (    1183 calls)

     Called by *egterg:
     cdiaghg      :      0.25s CPU      0.26s WALL (    7193 calls)
     h_psi        :     11.05s CPU     12.09s WALL (    7362 calls)
     g_psi        :      0.14s CPU      0.15s WALL (    6010 calls)

     Called by h_psi:
     h_psi:calbec :      0.35s CPU      0.38s WALL (    7362 calls)
     vloc_psi     :     10.36s CPU     11.35s WALL (    7362 calls)
                                        0.00s GPU  (    7362 calls)
     add_vuspsi   :      0.21s CPU      0.23s WALL (    7362 calls)

     General routines
     calbec       :      0.57s CPU      0.61s WALL (   10235 calls)
     fft          :      0.20s CPU      0.21s WALL (     104 calls)
     ffts         :      0.00s CPU      0.00s WALL (       7 calls)
     fftw         :     10.78s CPU     11.76s WALL (   73862 calls)
     davcio       :      0.13s CPU      0.16s WALL (    4277 calls)

     Parallel routines

     PWSCF        :     16.12s CPU     17.63s WALL


   This run was terminated on:  15: 6: 2  27Aug2026            

=------------------------------------------------------------------------------=
   JOB DONE.
=------------------------------------------------------------------------------=
