&CONTROL
   verbosity        = 'low'
   tstress          = .true.
   tprnfor          = .true.
   outdir           = './tmp'
   prefix           = 'chg_bridge'
   pseudo_dir       = './'
/
&SYSTEM
   ibrav            = 0
   nat              = 19
   ntyp             = 2
   ecutwfc          = 80
   occupations      = 'smearing'
   degauss          = 0.01
   smearing         = 'gauss'
   vdw_corr         = 'DFT-D3'
   dftd3_version    = 4
/
&ELECTRONS
   conv_thr         = 1e-10
/
&IONS
/
&CELL
/
&FCP
/
&RISM
/
ATOMIC_SPECIES
C 12.011 C.upf
Hg 200.592 Hg.upf

K_POINTS automatic
1 1 1  0 0 0

CELL_PARAMETERS angstrom
7.40317201610000 0.00000000000000 0.00000000000000
-3.70158600810000 6.41133503460000 0.00000000000000
0.00000000000000 0.00000000000000 15.00000000000000

ATOMIC_POSITIONS angstrom
C 0.0329888823 0.0043617425 7.4803937617  
C -1.2115029508 2.1338672164 7.4942867264  
C -2.4469129007 4.2734433754 7.4927093160  
C 2.4966202275 -0.0038222092 7.5279603311  
C 1.2576216604 2.1425176701 7.5277043269  
C 0.0173242764 4.2698726938 7.4841255619  
C 4.9636823969 -0.0023852024 7.5071368583  
C 3.7280702913 2.1377822069 7.5594729603  
C 2.4922399261 4.2777845198 7.5074162446  
C -0.0202582105 1.4291667336 7.4937803134  
C -1.2646034488 3.5585801885 7.4807138283  
C -2.4865443729 5.7009174670 7.4922334272  
C 2.4432771604 1.4253500778 7.5587767653  
C 1.2077239793 3.5654579028 7.5069869443  
C -0.0224491187 5.6965679066 7.5072457051  
C 4.9138330073 1.4204958687 7.5285511957  
C 3.6747433876 3.5667162772 7.5287374986  
C 2.4524268025 5.7047558906 7.4841408900  
Hg 3.0650344940 1.7697389074 10.7376516306  

