C  H 
 1.0000000000000000
     4.9326481819000003    0.0000000000000000    0.0000000000000000
    -2.4663246598000002    4.2717983050999999    0.0000000000000000
     0.0000000000000000    0.0000000000000000   15.0000000000000000
 C   H  
   8   1
Cartesian
 -0.0159203214606034  0.0091915870817215  7.3775243138468909
 -1.2331623300000001  2.1175159457549011  7.3775243138468909
  2.4822444124606045  0.0091915953316267  7.3775243138468909
  1.2331617610000001  2.1358991530000000  7.8381968588786899
 -0.0323640586915787  1.4052473608038034  7.4194770091464424
 -1.2331625190000000  3.5598318359999999  7.5309449706788980
  2.4986876226915777  1.4052473639073702  7.4194770091464424
  1.2331614240000000  3.5972024303115466  7.4194770091464424
  1.2331617610000001  2.1358991530000000  8.9398540947125014
